Traveling Salesman Problem/TSP_generados/Aleatorio1621103232_5.tsp
NAME: Aleatorio1621103232_5.tsp
COMMENT: Randomly generated scenario
TYPE: TSP
DIMENSION: 5
EDGE_WEIGHT_TYPE: ATT
NODE_COORD_SECTION
1 38.26 43.28
2 18.43 21.58
3 20.27 49.3
4 17.98 5.56
5 10.04 30.29
